Route #1: 16 63 23 56 41 43 
Route #2: 10 31 12 27 8 
Route #3: 68 48 47 69 36 13 52 
Route #4: 6 64 42 61 5 
Route #5: 46 38 54 57 34 
Route #6: 3 44 50 39 72 40 
Route #7: 67 60 70 37 45 
Route #8: 53 14 11 35 
Route #9: 2 21 71 20 15 29 
Route #10: 30 74 28 62 75 
Route #11: 33 49 24 18 25 55 
Route #12: 26 58 9 32 
Route #13: 7 65 66 59 19 
Route #14: 17 51 22 1 73 4 
cost 1299.03
execution_time 76.887
